
Welcome to IBM(R) ILOG(R) CPLEX(R) Interactive Optimizer 22.1.1.0
  with Simplex, Mixed Integer & Barrier Optimizers
5725-A06 5725-A29 5724-Y48 5724-Y49 5724-Y54 5724-Y55 5655-Y21
Copyright IBM Corp. 1988, 2022.  All Rights Reserved.

Type 'help' for a list of available commands.
Type 'help' followed by a command name for more
information on commands.

CPLEX> New value for default parallel thread count: 1
CPLEX> New value for time limit in seconds: 30
CPLEX> New value for mixed integer optimality gap tolerance: 0
CPLEX> Problem 'results\v20_replication_round\oracle\cplex\interval_oracle_16_0p00832009355002_0p00844809498925.lp' read.
Read time = 0.00 sec. (0.57 ticks)
CPLEX> Version identifier: 22.1.1.0 | 2022-11-27 | 9160aff4d
CPXPARAM_Threads                                 1
CPXPARAM_TimeLimit                               30
CPXPARAM_MIP_Tolerances_MIPGap                   0
Tried aggregator 2 times.
MIP Presolve eliminated 166 rows and 38 columns.
MIP Presolve modified 672 coefficients.
Aggregator did 62 substitutions.
Reduced MIP has 4831 rows, 2017 columns, and 22737 nonzeros.
Reduced MIP has 1456 binaries, 192 generals, 0 SOSs, and 0 indicators.
Presolve time = 0.00 sec. (23.77 ticks)
Probing fixed 0 vars, tightened 15 bounds.
Probing time = 0.03 sec. (50.69 ticks)
Tried aggregator 1 time.
Detecting symmetries...
MIP Presolve eliminated 48 rows and 30 columns.
MIP Presolve modified 24 coefficients.
Reduced MIP has 4783 rows, 1987 columns, and 22359 nonzeros.
Reduced MIP has 1450 binaries, 186 generals, 0 SOSs, and 0 indicators.
Presolve time = 0.02 sec. (18.62 ticks)
Probing time = 0.02 sec. (24.93 ticks)
Clique table members: 12043.
MIP emphasis: balance optimality and feasibility.
MIP search method: dynamic search.
Parallel mode: none, using 1 thread.
Root relaxation solution time = 0.05 sec. (120.78 ticks)

        Nodes                                         Cuts/
   Node  Left     Objective  IInf  Best Integer    Best Bound    ItCnt     Gap

      0     0        0.0453   185                      0.0453     1118
      0     0        0.0453   169                    Cuts: 48     1292
      0     0        0.0453   202                    Cuts: 71     1546
      0     0        0.0453   168                    Cuts: 35     1643
      0     0        0.0453   197                    Cuts: 75     2071
      0     2        0.0453   172                      0.0453     2071
Elapsed time = 0.70 sec. (1518.54 ticks, tree = 0.01 MB, solutions = 0)
      2     0    infeasible                                       7784

Cover cuts applied:  3
Implied bound cuts applied:  10
Flow cuts applied:  11
Mixed integer rounding cuts applied:  16
Gomory fractional cuts applied:  5

Root node processing (before b&c):
  Real time             =    0.69 sec. (1503.29 ticks)
Sequential b&c:
  Real time             =    0.42 sec. (1032.07 ticks)
                          ------------
Total (root+branch&cut) =    1.11 sec. (2535.36 ticks)


MIP - Integer infeasible.
Current MIP best bound is infinite.
Solution time =    1.11 sec.  Iterations = 7784  Nodes = 3
Deterministic time = 2535.37 ticks  (2286.18 ticks/sec)

CPLEX> CPLEX Error  1217: No solution exists.
No file written.
CPLEX>